Route #1: 1 56 30 33 49 6 1
Route #2: 1 16 31 5 50 57 1
Route #3: 1 10 48 11 38 8 37 21 28 1
Route #4: 1 29 61 14 45 17 41 32 47 1
Route #5: 1 46 2 51 19 1
Route #6: 1 27 36 7 42 55 15 59 13 44 12 1
Route #7: 1 58 54 39 24 18 25 53 63 9 1
Route #8: 1 23 35 40 52 20 1
Route #9: 1 43 62 3 22 34 26 1
Route #10: 1 4 60 1
cost 1747.7999812229823